p cnf 199 785
c p weight 9 1 0
c p weight -9 1 0
c p weight 10 0 0
c p weight -10 1 0
c p weight -7 1 0
c p weight 7 -1 0
c p weight 13 6.12323399573676603586882014729198302312846062338790031898128063403419218957424163818359375E-17 0
c p weight -13 1 0
c p weight 14 1 0
c p weight -14 1 0
c p weight -11 1 0
c p weight 11 -1 0
c p weight 17 1 0
c p weight -17 1 0
c p weight 18 -2.4492935982947064143475280589167932092513842493551601275925122536136768758296966552734375E-16 0
c p weight -18 1 0
c p weight -15 1 0
c p weight 15 -1 0
c p weight 21 6.12323399573676603586882014729198302312846062338790031898128063403419218957424163818359375E-17 0
c p weight -21 1 0
c p weight 22 1 0
c p weight -22 1 0
c p weight -19 1 0
c p weight 19 -1 0
c p weight 25 -1 0
c p weight -25 1 0
c p weight 26 3.673940397442059375002259206809000622711899723162043418511757408850826323032379150390625E-16 0
c p weight -26 1 0
c p weight -23 1 0
c p weight 23 -1 0
c p weight 29 1 0
c p weight -29 1 0
c p weight 30 0 0
c p weight -30 1 0
c p weight -27 1 0
c p weight 27 -1 0
c p weight 33 6.12323399573676603586882014729198302312846062338790031898128063403419218957424163818359375E-17 0
c p weight -33 1 0
c p weight 34 1 0
c p weight -34 1 0
c p weight -31 1 0
c p weight 31 -1 0
c p weight 37 0.09133220464431802965155071660774410702288150787353515625 0
c p weight -37 1 0
c p weight 38 -0.995820480003704489035953884012997150421142578125 0
c p weight -38 1 0
c p weight -35 1 0
c p weight 35 -1 0
c p weight 41 6.12323399573676603586882014729198302312846062338790031898128063403419218957424163818359375E-17 0
c p weight -41 1 0
c p weight 42 1 0
c p weight -42 1 0
c p weight -39 1 0
c p weight 39 -1 0
c p weight 45 -1 0
c p weight -45 1 0
c p weight 46 3.673940397442059375002259206809000622711899723162043418511757408850826323032379150390625E-16 0
c p weight -46 1 0
c p weight -43 1 0
c p weight 43 -1 0
c p weight 49 1 0
c p weight -49 1 0
c p weight 50 0 0
c p weight -50 1 0
c p weight -47 1 0
c p weight 47 -1 0
c p weight 53 6.12323399573676603586882014729198302312846062338790031898128063403419218957424163818359375E-17 0
c p weight -53 1 0
c p weight 54 1 0
c p weight -54 1 0
c p weight -51 1 0
c p weight 51 -1 0
c p weight 57 -0.99731671521640141708786586605128832161426544189453125 0
c p weight -57 1 0
c p weight 58 0.07320771509866451365322603805907419882714748382568359375 0
c p weight -58 1 0
c p weight -55 1 0
c p weight 55 -1 0
c p weight 61 6.12323399573676603586882014729198302312846062338790031898128063403419218957424163818359375E-17 0
c p weight -61 1 0
c p weight 62 1 0
c p weight -62 1 0
c p weight -59 1 0
c p weight 59 -1 0
c p weight 65 -1 0
c p weight -65 1 0
c p weight 66 3.673940397442059375002259206809000622711899723162043418511757408850826323032379150390625E-16 0
c p weight -66 1 0
c p weight -63 1 0
c p weight 63 -1 0
c p weight -67 1 0
c p weight 67 -1 0
c p weight -70 1 0
c p weight 70 -1 0
c p weight 75 1 0
c p weight -75 1 0
c p weight 76 0 0
c p weight -76 1 0
c p weight -73 1 0
c p weight 73 -1 0
c p weight 79 6.12323399573676603586882014729198302312846062338790031898128063403419218957424163818359375E-17 0
c p weight -79 1 0
c p weight 80 1 0
c p weight -80 1 0
c p weight -77 1 0
c p weight 77 -1 0
c p weight 83 0.99999910330413344095035199643461965024471282958984375 0
c p weight -83 1 0
c p weight 84 -0.00133917546615468468877707675090960037778131663799285888671875 0
c p weight -84 1 0
c p weight -81 1 0
c p weight 81 -1 0
c p weight 87 6.12323399573676603586882014729198302312846062338790031898128063403419218957424163818359375E-17 0
c p weight -87 1 0
c p weight 88 1 0
c p weight -88 1 0
c p weight -85 1 0
c p weight 85 -1 0
c p weight 91 -1 0
c p weight -91 1 0
c p weight 92 3.673940397442059375002259206809000622711899723162043418511757408850826323032379150390625E-16 0
c p weight -92 1 0
c p weight -89 1 0
c p weight 89 -1 0
c p weight 95 1 0
c p weight -95 1 0
c p weight 96 0 0
c p weight -96 1 0
c p weight -93 1 0
c p weight 93 -1 0
c p weight 99 6.12323399573676603586882014729198302312846062338790031898128063403419218957424163818359375E-17 0
c p weight -99 1 0
c p weight 100 1 0
c p weight -100 1 0
c p weight -97 1 0
c p weight 97 -1 0
c p weight 103 0.264293834779085246022845012703328393399715423583984375 0
c p weight -103 1 0
c p weight 104 0.9644422060951944875029084869311191141605377197265625 0
c p weight -104 1 0
c p weight -101 1 0
c p weight 101 -1 0
c p weight 107 6.12323399573676603586882014729198302312846062338790031898128063403419218957424163818359375E-17 0
c p weight -107 1 0
c p weight 108 1 0
c p weight -108 1 0
c p weight -105 1 0
c p weight 105 -1 0
c p weight 111 -1 0
c p weight -111 1 0
c p weight 112 3.673940397442059375002259206809000622711899723162043418511757408850826323032379150390625E-16 0
c p weight -112 1 0
c p weight -109 1 0
c p weight 109 -1 0
c p weight 115 1 0
c p weight -115 1 0
c p weight 116 0 0
c p weight -116 1 0
c p weight -113 1 0
c p weight 113 -1 0
c p weight 119 6.12323399573676603586882014729198302312846062338790031898128063403419218957424163818359375E-17 0
c p weight -119 1 0
c p weight 120 1 0
c p weight -120 1 0
c p weight -117 1 0
c p weight 117 -1 0
c p weight 123 -0.1326139505299075704858324797896784730255603790283203125 0
c p weight -123 1 0
c p weight 124 0.99116776588267396785880691822967492043972015380859375 0
c p weight -124 1 0
c p weight -121 1 0
c p weight 121 -1 0
c p weight 127 6.12323399573676603586882014729198302312846062338790031898128063403419218957424163818359375E-17 0
c p weight -127 1 0
c p weight 128 1 0
c p weight -128 1 0
c p weight -125 1 0
c p weight 125 -1 0
c p weight 131 -1 0
c p weight -131 1 0
c p weight 132 3.673940397442059375002259206809000622711899723162043418511757408850826323032379150390625E-16 0
c p weight -132 1 0
c p weight -129 1 0
c p weight 129 -1 0
c p weight -133 1 0
c p weight 133 -1 0
c p weight -136 1 0
c p weight 136 -1 0
c p weight 141 1 0
c p weight -141 1 0
c p weight 142 0 0
c p weight -142 1 0
c p weight -139 1 0
c p weight 139 -1 0
c p weight 145 6.12323399573676603586882014729198302312846062338790031898128063403419218957424163818359375E-17 0
c p weight -145 1 0
c p weight 146 1 0
c p weight -146 1 0
c p weight -143 1 0
c p weight 143 -1 0
c p weight 149 1 0
c p weight -149 1 0
c p weight 150 0 0
c p weight -150 1 0
c p weight -147 1 0
c p weight 147 -1 0
c p weight 153 6.12323399573676603586882014729198302312846062338790031898128063403419218957424163818359375E-17 0
c p weight -153 1 0
c p weight 154 1 0
c p weight -154 1 0
c p weight -151 1 0
c p weight 151 -1 0
c p weight 157 -1 0
c p weight -157 1 0
c p weight 158 3.673940397442059375002259206809000622711899723162043418511757408850826323032379150390625E-16 0
c p weight -158 1 0
c p weight -155 1 0
c p weight 155 -1 0
c p weight 161 1 0
c p weight -161 1 0
c p weight 162 0 0
c p weight -162 1 0
c p weight -159 1 0
c p weight 159 -1 0
c p weight 165 6.12323399573676603586882014729198302312846062338790031898128063403419218957424163818359375E-17 0
c p weight -165 1 0
c p weight 166 1 0
c p weight -166 1 0
c p weight -163 1 0
c p weight 163 -1 0
c p weight 169 0.7679573758570643615684048199909739196300506591796875 0
c p weight -169 1 0
c p weight 170 0.64050095149557095819403684799908660352230072021484375 0
c p weight -170 1 0
c p weight -167 1 0
c p weight 167 -1 0
c p weight 173 6.12323399573676603586882014729198302312846062338790031898128063403419218957424163818359375E-17 0
c p weight -173 1 0
c p weight 174 1 0
c p weight -174 1 0
c p weight -171 1 0
c p weight 171 -1 0
c p weight 177 -1 0
c p weight -177 1 0
c p weight 178 3.673940397442059375002259206809000622711899723162043418511757408850826323032379150390625E-16 0
c p weight -178 1 0
c p weight -175 1 0
c p weight 175 -1 0
c p weight 181 1 0
c p weight -181 1 0
c p weight 182 0 0
c p weight -182 1 0
c p weight -179 1 0
c p weight 179 -1 0
c p weight 185 6.12323399573676603586882014729198302312846062338790031898128063403419218957424163818359375E-17 0
c p weight -185 1 0
c p weight 186 1 0
c p weight -186 1 0
c p weight -183 1 0
c p weight 183 -1 0
c p weight 189 -0.99989946423220243953977615092298947274684906005859375 0
c p weight -189 1 0
c p weight 190 0.01417961311723774271709164196408892166800796985626220703125 0
c p weight -190 1 0
c p weight -187 1 0
c p weight 187 -1 0
c p weight 193 6.12323399573676603586882014729198302312846062338790031898128063403419218957424163818359375E-17 0
c p weight -193 1 0
c p weight 194 1 0
c p weight -194 1 0
c p weight -191 1 0
c p weight 191 -1 0
c p weight 197 -1 0
c p weight -197 1 0
c p weight 198 3.673940397442059375002259206809000622711899723162043418511757408850826323032379150390625E-16 0
c p weight -198 1 0
c p weight -195 1 0
c p weight 195 -1 0
c p weight 199 0.5 0
c p weight -199 1 0
199 0
-5 0
-3 0
-1 0
-7 1 0
-7 2 0
-7 -8 0
7 8 -1 -2 0
8 1 -2 0
-8 1 2 0
-9 1 0
8 -9 -2 0
-8 -9 2 0
8 9 -1 2 0
-8 9 -1 -2 0
-10 1 0
8 -10 2 0
-8 -10 -2 0
8 10 -1 -2 0
-8 10 -1 2 0
-11 12 0
-11 8 0
-11 -1 0
11 -12 1 -8 0
12 -1 8 0
-12 1 8 0
-13 8 0
12 -13 -1 0
-12 -13 1 0
12 13 1 -8 0
-12 13 -1 -8 0
-14 8 0
12 -14 1 0
-12 -14 -1 0
12 14 -1 -8 0
-12 14 1 -8 0
-15 12 0
-15 8 0
-15 -16 0
15 16 -12 -8 0
16 12 -8 0
-16 12 8 0
-17 12 0
16 -17 -8 0
-16 -17 8 0
16 17 -12 8 0
-16 17 -12 -8 0
-18 12 0
16 -18 8 0
-16 -18 -8 0
16 18 -12 -8 0
-16 18 -12 8 0
-19 20 0
-19 16 0
-19 -12 0
19 -20 12 -16 0
20 -12 16 0
-20 12 16 0
-21 16 0
20 -21 -12 0
-20 -21 12 0
20 21 12 -16 0
-20 21 -12 -16 0
-22 16 0
20 -22 12 0
-20 -22 -12 0
20 22 -12 -16 0
-20 22 12 -16 0
-23 20 0
-23 16 0
-23 -24 0
23 24 -20 -16 0
24 20 -16 0
-24 20 16 0
-25 20 0
24 -25 -16 0
-24 -25 16 0
24 25 -20 16 0
-24 25 -20 -16 0
-26 20 0
24 -26 16 0
-24 -26 -16 0
24 26 -20 -16 0
-24 26 -20 16 0
-27 3 0
-27 4 0
-27 -28 0
27 28 -3 -4 0
28 3 -4 0
-28 3 4 0
-29 3 0
28 -29 -4 0
-28 -29 4 0
28 29 -3 4 0
-28 29 -3 -4 0
-30 3 0
28 -30 4 0
-28 -30 -4 0
28 30 -3 -4 0
-28 30 -3 4 0
-31 32 0
-31 28 0
-31 -3 0
31 -32 3 -28 0
32 -3 28 0
-32 3 28 0
-33 28 0
32 -33 -3 0
-32 -33 3 0
32 33 3 -28 0
-32 33 -3 -28 0
-34 28 0
32 -34 3 0
-32 -34 -3 0
32 34 -3 -28 0
-32 34 3 -28 0
-35 32 0
-35 28 0
-35 -36 0
35 36 -32 -28 0
36 32 -28 0
-36 32 28 0
-37 32 0
36 -37 -28 0
-36 -37 28 0
36 37 -32 28 0
-36 37 -32 -28 0
-38 32 0
36 -38 28 0
-36 -38 -28 0
36 38 -32 -28 0
-36 38 -32 28 0
-39 40 0
-39 36 0
-39 -32 0
39 -40 32 -36 0
40 -32 36 0
-40 32 36 0
-41 36 0
40 -41 -32 0
-40 -41 32 0
40 41 32 -36 0
-40 41 -32 -36 0
-42 36 0
40 -42 32 0
-40 -42 -32 0
40 42 -32 -36 0
-40 42 32 -36 0
-43 40 0
-43 36 0
-43 -44 0
43 44 -40 -36 0
44 40 -36 0
-44 40 36 0
-45 40 0
44 -45 -36 0
-44 -45 36 0
44 45 -40 36 0
-44 45 -40 -36 0
-46 40 0
44 -46 36 0
-44 -46 -36 0
44 46 -40 -36 0
-44 46 -40 36 0
-47 5 0
-47 6 0
-47 -48 0
47 48 -5 -6 0
48 5 -6 0
-48 5 6 0
-49 5 0
48 -49 -6 0
-48 -49 6 0
48 49 -5 6 0
-48 49 -5 -6 0
-50 5 0
48 -50 6 0
-48 -50 -6 0
48 50 -5 -6 0
-48 50 -5 6 0
-51 52 0
-51 48 0
-51 -5 0
51 -52 5 -48 0
52 -5 48 0
-52 5 48 0
-53 48 0
52 -53 -5 0
-52 -53 5 0
52 53 5 -48 0
-52 53 -5 -48 0
-54 48 0
52 -54 5 0
-52 -54 -5 0
52 54 -5 -48 0
-52 54 5 -48 0
-55 52 0
-55 48 0
-55 -56 0
55 56 -52 -48 0
56 52 -48 0
-56 52 48 0
-57 52 0
56 -57 -48 0
-56 -57 48 0
56 57 -52 48 0
-56 57 -52 -48 0
-58 52 0
56 -58 48 0
-56 -58 -48 0
56 58 -52 -48 0
-56 58 -52 48 0
-59 60 0
-59 56 0
-59 -52 0
59 -60 52 -56 0
60 -52 56 0
-60 52 56 0
-61 56 0
60 -61 -52 0
-60 -61 52 0
60 61 52 -56 0
-60 61 -52 -56 0
-62 56 0
60 -62 52 0
-60 -62 -52 0
60 62 -52 -56 0
-60 62 52 -56 0
-63 60 0
-63 56 0
-63 -64 0
63 64 -60 -56 0
64 60 -56 0
-64 60 56 0
-65 60 0
64 -65 -56 0
-64 -65 56 0
64 65 -60 56 0
-64 65 -60 -56 0
-66 60 0
64 -66 56 0
-64 -66 -56 0
64 66 -60 -56 0
-64 66 -60 56 0
-67 40 0
-67 64 0
-67 60 -44 0
-67 -60 44 0
67 -40 60 44 -64 0
67 -40 -60 -44 -64 0
69 40 -60 0
69 -40 60 0
-69 40 60 0
-69 -40 -60 0
68 44 -64 0
68 -44 64 0
-68 44 64 0
-68 -44 -64 0
-70 20 0
-70 68 0
-70 40 -24 0
-70 -40 24 0
70 -20 40 24 -68 0
70 -20 -40 -24 -68 0
72 20 -40 0
72 -20 40 0
-72 20 40 0
-72 -20 -40 0
71 24 -68 0
71 -24 68 0
-71 24 68 0
-71 -24 -68 0
-73 20 0
-73 71 0
-73 -74 0
73 74 -20 -71 0
74 20 -71 0
-74 20 71 0
-75 20 0
74 -75 -71 0
-74 -75 71 0
74 75 -20 71 0
-74 75 -20 -71 0
-76 20 0
74 -76 71 0
-74 -76 -71 0
74 76 -20 -71 0
-74 76 -20 71 0
-77 78 0
-77 74 0
-77 -20 0
77 -78 20 -74 0
78 -20 74 0
-78 20 74 0
-79 74 0
78 -79 -20 0
-78 -79 20 0
78 79 20 -74 0
-78 79 -20 -74 0
-80 74 0
78 -80 20 0
-78 -80 -20 0
78 80 -20 -74 0
-78 80 20 -74 0
-81 78 0
-81 74 0
-81 -82 0
81 82 -78 -74 0
82 78 -74 0
-82 78 74 0
-83 78 0
82 -83 -74 0
-82 -83 74 0
82 83 -78 74 0
-82 83 -78 -74 0
-84 78 0
82 -84 74 0
-82 -84 -74 0
82 84 -78 -74 0
-82 84 -78 74 0
-85 86 0
-85 82 0
-85 -78 0
85 -86 78 -82 0
86 -78 82 0
-86 78 82 0
-87 82 0
86 -87 -78 0
-86 -87 78 0
86 87 78 -82 0
-86 87 -78 -82 0
-88 82 0
86 -88 78 0
-86 -88 -78 0
86 88 -78 -82 0
-86 88 78 -82 0
-89 86 0
-89 82 0
-89 -90 0
89 90 -86 -82 0
90 86 -82 0
-90 86 82 0
-91 86 0
90 -91 -82 0
-90 -91 82 0
90 91 -86 82 0
-90 91 -86 -82 0
-92 86 0
90 -92 82 0
-90 -92 -82 0
90 92 -86 -82 0
-90 92 -86 82 0
-93 72 0
-93 68 0
-93 -94 0
93 94 -72 -68 0
94 72 -68 0
-94 72 68 0
-95 72 0
94 -95 -68 0
-94 -95 68 0
94 95 -72 68 0
-94 95 -72 -68 0
-96 72 0
94 -96 68 0
-94 -96 -68 0
94 96 -72 -68 0
-94 96 -72 68 0
-97 98 0
-97 94 0
-97 -72 0
97 -98 72 -94 0
98 -72 94 0
-98 72 94 0
-99 94 0
98 -99 -72 0
-98 -99 72 0
98 99 72 -94 0
-98 99 -72 -94 0
-100 94 0
98 -100 72 0
-98 -100 -72 0
98 100 -72 -94 0
-98 100 72 -94 0
-101 98 0
-101 94 0
-101 -102 0
101 102 -98 -94 0
102 98 -94 0
-102 98 94 0
-103 98 0
102 -103 -94 0
-102 -103 94 0
102 103 -98 94 0
-102 103 -98 -94 0
-104 98 0
102 -104 94 0
-102 -104 -94 0
102 104 -98 -94 0
-102 104 -98 94 0
-105 106 0
-105 102 0
-105 -98 0
105 -106 98 -102 0
106 -98 102 0
-106 98 102 0
-107 102 0
106 -107 -98 0
-106 -107 98 0
106 107 98 -102 0
-106 107 -98 -102 0
-108 102 0
106 -108 98 0
-106 -108 -98 0
106 108 -98 -102 0
-106 108 98 -102 0
-109 106 0
-109 102 0
-109 -110 0
109 110 -106 -102 0
110 106 -102 0
-110 106 102 0
-111 106 0
110 -111 -102 0
-110 -111 102 0
110 111 -106 102 0
-110 111 -106 -102 0
-112 106 0
110 -112 102 0
-110 -112 -102 0
110 112 -106 -102 0
-110 112 -106 102 0
-113 69 0
-113 64 0
-113 -114 0
113 114 -69 -64 0
114 69 -64 0
-114 69 64 0
-115 69 0
114 -115 -64 0
-114 -115 64 0
114 115 -69 64 0
-114 115 -69 -64 0
-116 69 0
114 -116 64 0
-114 -116 -64 0
114 116 -69 -64 0
-114 116 -69 64 0
-117 118 0
-117 114 0
-117 -69 0
117 -118 69 -114 0
118 -69 114 0
-118 69 114 0
-119 114 0
118 -119 -69 0
-118 -119 69 0
118 119 69 -114 0
-118 119 -69 -114 0
-120 114 0
118 -120 69 0
-118 -120 -69 0
118 120 -69 -114 0
-118 120 69 -114 0
-121 118 0
-121 114 0
-121 -122 0
121 122 -118 -114 0
122 118 -114 0
-122 118 114 0
-123 118 0
122 -123 -114 0
-122 -123 114 0
122 123 -118 114 0
-122 123 -118 -114 0
-124 118 0
122 -124 114 0
-122 -124 -114 0
122 124 -118 -114 0
-122 124 -118 114 0
-125 126 0
-125 122 0
-125 -118 0
125 -126 118 -122 0
126 -118 122 0
-126 118 122 0
-127 122 0
126 -127 -118 0
-126 -127 118 0
126 127 118 -122 0
-126 127 -118 -122 0
-128 122 0
126 -128 118 0
-126 -128 -118 0
126 128 -118 -122 0
-126 128 118 -122 0
-129 126 0
-129 122 0
-129 -130 0
129 130 -126 -122 0
130 126 -122 0
-130 126 122 0
-131 126 0
130 -131 -122 0
-130 -131 122 0
130 131 -126 122 0
-130 131 -126 -122 0
-132 126 0
130 -132 122 0
-130 -132 -122 0
130 132 -126 -122 0
-130 132 -126 122 0
-133 106 0
-133 130 0
-133 126 -110 0
-133 -126 110 0
133 -106 126 110 -130 0
133 -106 -126 -110 -130 0
135 106 -126 0
135 -106 126 0
-135 106 126 0
-135 -106 -126 0
134 110 -130 0
134 -110 130 0
-134 110 130 0
-134 -110 -130 0
-136 86 0
-136 134 0
-136 106 -90 0
-136 -106 90 0
136 -86 106 90 -134 0
136 -86 -106 -90 -134 0
138 86 -106 0
138 -86 106 0
-138 86 106 0
-138 -86 -106 0
137 90 -134 0
137 -90 134 0
-137 90 134 0
-137 -90 -134 0
-139 86 0
-139 137 0
-139 -140 0
139 140 -86 -137 0
140 86 -137 0
-140 86 137 0
-141 86 0
140 -141 -137 0
-140 -141 137 0
140 141 -86 137 0
-140 141 -86 -137 0
-142 86 0
140 -142 137 0
-140 -142 -137 0
140 142 -86 -137 0
-140 142 -86 137 0
-143 144 0
-143 140 0
-143 -86 0
143 -144 86 -140 0
144 -86 140 0
-144 86 140 0
-145 140 0
144 -145 -86 0
-144 -145 86 0
144 145 86 -140 0
-144 145 -86 -140 0
-146 140 0
144 -146 86 0
-144 -146 -86 0
144 146 -86 -140 0
-144 146 86 -140 0
-147 144 0
-147 140 0
-147 -148 0
147 148 -144 -140 0
148 144 -140 0
-148 144 140 0
-149 144 0
148 -149 -140 0
-148 -149 140 0
148 149 -144 140 0
-148 149 -144 -140 0
-150 144 0
148 -150 140 0
-148 -150 -140 0
148 150 -144 -140 0
-148 150 -144 140 0
-151 152 0
-151 148 0
-151 -144 0
151 -152 144 -148 0
152 -144 148 0
-152 144 148 0
-153 148 0
152 -153 -144 0
-152 -153 144 0
152 153 144 -148 0
-152 153 -144 -148 0
-154 148 0
152 -154 144 0
-152 -154 -144 0
152 154 -144 -148 0
-152 154 144 -148 0
-155 152 0
-155 148 0
-155 -156 0
155 156 -152 -148 0
156 152 -148 0
-156 152 148 0
-157 152 0
156 -157 -148 0
-156 -157 148 0
156 157 -152 148 0
-156 157 -152 -148 0
-158 152 0
156 -158 148 0
-156 -158 -148 0
156 158 -152 -148 0
-156 158 -152 148 0
-159 138 0
-159 134 0
-159 -160 0
159 160 -138 -134 0
160 138 -134 0
-160 138 134 0
-161 138 0
160 -161 -134 0
-160 -161 134 0
160 161 -138 134 0
-160 161 -138 -134 0
-162 138 0
160 -162 134 0
-160 -162 -134 0
160 162 -138 -134 0
-160 162 -138 134 0
-163 164 0
-163 160 0
-163 -138 0
163 -164 138 -160 0
164 -138 160 0
-164 138 160 0
-165 160 0
164 -165 -138 0
-164 -165 138 0
164 165 138 -160 0
-164 165 -138 -160 0
-166 160 0
164 -166 138 0
-164 -166 -138 0
164 166 -138 -160 0
-164 166 138 -160 0
-167 164 0
-167 160 0
-167 -168 0
167 168 -164 -160 0
168 164 -160 0
-168 164 160 0
-169 164 0
168 -169 -160 0
-168 -169 160 0
168 169 -164 160 0
-168 169 -164 -160 0
-170 164 0
168 -170 160 0
-168 -170 -160 0
168 170 -164 -160 0
-168 170 -164 160 0
-171 172 0
-171 168 0
-171 -164 0
171 -172 164 -168 0
172 -164 168 0
-172 164 168 0
-173 168 0
172 -173 -164 0
-172 -173 164 0
172 173 164 -168 0
-172 173 -164 -168 0
-174 168 0
172 -174 164 0
-172 -174 -164 0
172 174 -164 -168 0
-172 174 164 -168 0
-175 172 0
-175 168 0
-175 -176 0
175 176 -172 -168 0
176 172 -168 0
-176 172 168 0
-177 172 0
176 -177 -168 0
-176 -177 168 0
176 177 -172 168 0
-176 177 -172 -168 0
-178 172 0
176 -178 168 0
-176 -178 -168 0
176 178 -172 -168 0
-176 178 -172 168 0
-179 135 0
-179 130 0
-179 -180 0
179 180 -135 -130 0
180 135 -130 0
-180 135 130 0
-181 135 0
180 -181 -130 0
-180 -181 130 0
180 181 -135 130 0
-180 181 -135 -130 0
-182 135 0
180 -182 130 0
-180 -182 -130 0
180 182 -135 -130 0
-180 182 -135 130 0
-183 184 0
-183 180 0
-183 -135 0
183 -184 135 -180 0
184 -135 180 0
-184 135 180 0
-185 180 0
184 -185 -135 0
-184 -185 135 0
184 185 135 -180 0
-184 185 -135 -180 0
-186 180 0
184 -186 135 0
-184 -186 -135 0
184 186 -135 -180 0
-184 186 135 -180 0
-187 184 0
-187 180 0
-187 -188 0
187 188 -184 -180 0
188 184 -180 0
-188 184 180 0
-189 184 0
188 -189 -180 0
-188 -189 180 0
188 189 -184 180 0
-188 189 -184 -180 0
-190 184 0
188 -190 180 0
-188 -190 -180 0
188 190 -184 -180 0
-188 190 -184 180 0
-191 192 0
-191 188 0
-191 -184 0
191 -192 184 -188 0
192 -184 188 0
-192 184 188 0
-193 188 0
192 -193 -184 0
-192 -193 184 0
192 193 184 -188 0
-192 193 -184 -188 0
-194 188 0
192 -194 184 0
-192 -194 -184 0
192 194 -184 -188 0
-192 194 184 -188 0
-195 192 0
-195 188 0
-195 -196 0
195 196 -192 -188 0
196 192 -188 0
-196 192 188 0
-197 192 0
196 -197 -188 0
-196 -197 188 0
196 197 -192 188 0
-196 197 -192 -188 0
-198 192 0
196 -198 188 0
-196 -198 -188 0
196 198 -192 -188 0
-196 198 -192 188 0
-152 0
-172 0
-176 0
-192 0
-196 0
